<?xml version = "1.0" encoding="UTF-8" standalone="yes"?>
<CPLEXSolution version="1.2">
 <header
   problemName="ilog.cplex"
   solutionName="incumbent"
   solutionIndex="-1"
   objectiveValue="103"
   solutionTypeValue="3"
   solutionTypeString="primal"
   solutionStatusValue="101"
   solutionStatusString="integer optimal solution"
   solutionMethodString="mip"
   primalFeasible="1"
   dualFeasible="1"
   MIPNodes="0"
   MIPIterations="13"
   writeLevel="3"/>
 <quality
   epInt="1.0000000000000001e-05"
   epRHS="9.9999999999999995e-07"
   maxIntInfeas="8.8817841970012523e-16"
   maxPrimalInfeas="8.8817841970012523e-16"
   maxX="3.0000000000000009"
   maxSlack="60"/>
 <variables>
  <variable name="x_0_3_0" index="3" value="1"/>
  <variable name="x_1_0_0" index="4" value="1"/>
  <variable name="x_2_1_0" index="10" value="1.0000000000000002"/>
  <variable name="x_3_2_0" index="14" value="1"/>
  <variable name="y_0_0" index="16" value="1"/>
  <variable name="y_1_0" index="17" value="1"/>
  <variable name="u_1_0" index="18" value="3.0000000000000009"/>
  <variable name="u_2_0" index="19" value="2"/>
  <variable name="u_3_0" index="20" value="1"/>
 </variables>
 <objectiveValues>
  <objective index="0" name="" value="103"/>
 </objectiveValues>
</CPLEXSolution>
